g9 0 1 0 101 20170614 0 4 0 496	# problem chain100
 200 101 1 0 101	# vars, constraints, objectives, ranges, eqns
 1 1	# nonlinear constraints, objectives
 0 0	# network constraints: nonlinear, linear
 101 200 101	# nonlinear vars in constraints, objectives, both
 0 0 0 1	# linear network variables; functions; arith, flags
 0 0 0 0 0	# discrete variables: binary, integer, nonlinear (b,c,o)
 499 200	# nonzeros in Jacobian, gradients
 0 0	# max name lengths: constraints, variables
 0 0 0 0 0	# common exprs: b,c,o,c1,o1
b
3
3
3
3
3
3
3
3
3
3
3
3
3
3
3
3
3
3
3
3
3
3
3
3
3
3
3
3
3
3
3
3
3
3
3
3
3
3
3
3
3
3
3
3
3
3
3
3
3
3
3
3
3
3
3
3
3
3
3
3
3
3
3
3
3
3
3
3
3
3
3
3
3
3
3
3
3
3
3
3
3
3
3
3
3
3
3
3
3
3
3
3
3
3
3
3
3
3
3
3
3
3
3
3
3
3
3
3
3
3
3
3
3
3
3
3
3
3
3
3
3
3
3
3
3
3
3
3
3
3
3
3
3
3
3
3
3
3
3
3
3
3
3
3
3
3
3
3
3
3
3
3
3
3
3
3
3
3
3
3
3
3
3
3
3
3
3
3
3
3
3
3
3
3
3
3
3
3
3
3
3
3
3
3
3
3
3
3
3
3
3
3
3
3
3
3
3
3
3
3
x199
0 -2
1 -1.92
2 -1.84
3 -1.76
4 -1.68
5 -1.6
6 -1.52
7 -1.44
8 -1.36
9 -1.28
10 -1.2
11 -1.12
12 -1.04
13 -0.96
14 -0.88
15 -0.8
16 -0.72
17 -0.64
18 -0.56
19 -0.48
20 -0.4
21 -0.32
22 -0.24
23 -0.16
24 -0.0800000000000001
26 0.0800000000000001
27 0.16
28 0.24
29 0.32
30 0.4
31 0.48
32 0.56
33 0.64
34 0.72
35 0.8
36 0.88
37 0.96
38 1.04
39 1.12
40 1.2
41 1.28
42 1.36
43 1.44
44 1.52
45 1.6
46 1.68
47 1.76
48 1.84
49 1.92
50 2
51 2.08
52 2.16
53 2.24
54 2.32
55 2.4
56 2.48
57 2.56
58 2.64
59 2.72
60 2.8
61 2.88
62 2.96
63 3.04
64 3.12
65 3.2
66 3.28
67 3.36
68 3.44
69 3.52
70 3.6
71 3.68
72 3.76
73 3.84
74 3.92
75 4
76 4.08
77 4.16
78 4.24
79 4.32
80 4.4
81 4.48
82 4.56
83 4.64
84 4.72
85 4.8
86 4.88
87 4.96
88 5.04
89 5.12
90 5.2
91 5.28
92 5.36
93 5.44
94 5.52
95 5.6
96 5.68
97 5.76
98 5.84
99 5.92
100 6
101 0.9804
102 0.9616
103 0.9436
104 0.9264
105 0.91
106 0.8944
107 0.8796
108 0.8656
109 0.8524
110 0.84
111 0.8284
112 0.8176
113 0.8076
114 0.7984
115 0.79
116 0.7824
117 0.7756
118 0.7696
119 0.7644
120 0.76
121 0.7564
122 0.7536
123 0.7516
124 0.7504
125 0.75
126 0.7504
127 0.7516
128 0.7536
129 0.7564
130 0.76
131 0.7644
132 0.7696
133 0.7756
134 0.7824
135 0.79
136 0.7984
137 0.8076
138 0.8176
139 0.8284
140 0.84
141 0.8524
142 0.8656
143 0.8796
144 0.8944
145 0.91
146 0.9264
147 0.9436
148 0.9616
149 0.9804
150 1
151 1.0204
152 1.0416
153 1.0636
154 1.0864
155 1.11
156 1.1344
157 1.1596
158 1.1856
159 1.2124
160 1.24
161 1.2684
162 1.2976
163 1.3276
164 1.3584
165 1.39
166 1.4224
167 1.4556
168 1.4896
169 1.5244
170 1.56
171 1.5964
172 1.6336
173 1.6716
174 1.7104
175 1.75
176 1.7904
177 1.8316
178 1.8736
179 1.9164
180 1.96
181 2.0044
182 2.0496
183 2.0956
184 2.1424
185 2.19
186 2.2384
187 2.2876
188 2.3376
189 2.3884
190 2.44
191 2.4924
192 2.5456
193 2.5996
194 2.6544
195 2.71
196 2.7664
197 2.8236
198 2.8816
199 2.9404
r
4 4
4 1
4 0
4 0
4 0
4 0
4 0
4 0
4 0
4 0
4 0
4 0
4 0
4 0
4 0
4 0
4 0
4 0
4 0
4 0
4 0
4 0
4 0
4 0
4 0
4 0
4 0
4 0
4 0
4 0
4 0
4 0
4 0
4 0
4 0
4 0
4 0
4 0
4 0
4 0
4 0
4 0
4 0
4 0
4 0
4 0
4 0
4 0
4 0
4 0
4 0
4 0
4 0
4 0
4 0
4 0
4 0
4 0
4 0
4 0
4 0
4 0
4 0
4 0
4 0
4 0
4 0
4 0
4 0
4 0
4 0
4 0
4 0
4 0
4 0
4 0
4 0
4 0
4 0
4 0
4 0
4 0
4 0
4 0
4 0
4 0
4 0
4 0
4 0
4 0
4 0
4 0
4 0
4 0
4 0
4 0
4 0
4 0
4 0
4 0
4 -3
C0
o54
200
o2
n0.005
o39
o0
n1
o5
v0
n2
o2
n0.005
o39
o0
n1
o5
v1
n2
o2
n0.005
o39
o0
n1
o5
v1
n2
o2
n0.005
o39
o0
n1
o5
v2
n2
o2
n0.005
o39
o0
n1
o5
v2
n2
o2
n0.005
o39
o0
n1
o5
v3
n2
o2
n0.005
o39
o0
n1
o5
v3
n2
o2
n0.005
o39
o0
n1
o5
v4
n2
o2
n0.005
o39
o0
n1
o5
v4
n2
o2
n0.005
o39
o0
n1
o5
v5
n2
o2
n0.005
o39
o0
n1
o5
v5
n2
o2
n0.005
o39
o0
n1
o5
v6
n2
o2
n0.005
o39
o0
n1
o5
v6
n2
o2
n0.005
o39
o0
n1
o5
v7
n2
o2
n0.005
o39
o0
n1
o5
v7
n2
o2
n0.005
o39
o0
n1
o5
v8
n2
o2
n0.005
o39
o0
n1
o5
v8
n2
o2
n0.005
o39
o0
n1
o5
v9
n2
o2
n0.005
o39
o0
n1
o5
v9
n2
o2
n0.005
o39
o0
n1
o5
v10
n2
o2
n0.005
o39
o0
n1
o5
v10
n2
o2
n0.005
o39
o0
n1
o5
v11
n2
o2
n0.005
o39
o0
n1
o5
v11
n2
o2
n0.005
o39
o0
n1
o5
v12
n2
o2
n0.005
o39
o0
n1
o5
v12
n2
o2
n0.005
o39
o0
n1
o5
v13
n2
o2
n0.005
o39
o0
n1
o5
v13
n2
o2
n0.005
o39
o0
n1
o5
v14
n2
o2
n0.005
o39
o0
n1
o5
v14
n2
o2
n0.005
o39
o0
n1
o5
v15
n2
o2
n0.005
o39
o0
n1
o5
v15
n2
o2
n0.005
o39
o0
n1
o5
v16
n2
o2
n0.005
o39
o0
n1
o5
v16
n2
o2
n0.005
o39
o0
n1
o5
v17
n2
o2
n0.005
o39
o0
n1
o5
v17
n2
o2
n0.005
o39
o0
n1
o5
v18
n2
o2
n0.005
o39
o0
n1
o5
v18
n2
o2
n0.005
o39
o0
n1
o5
v19
n2
o2
n0.005
o39
o0
n1
o5
v19
n2
o2
n0.005
o39
o0
n1
o5
v20
n2
o2
n0.005
o39
o0
n1
o5
v20
n2
o2
n0.005
o39
o0
n1
o5
v21
n2
o2
n0.005
o39
o0
n1
o5
v21
n2
o2
n0.005
o39
o0
n1
o5
v22
n2
o2
n0.005
o39
o0
n1
o5
v22
n2
o2
n0.005
o39
o0
n1
o5
v23
n2
o2
n0.005
o39
o0
n1
o5
v23
n2
o2
n0.005
o39
o0
n1
o5
v24
n2
o2
n0.005
o39
o0
n1
o5
v24
n2
o2
n0.005
o39
o0
n1
o5
v25
n2
o2
n0.005
o39
o0
n1
o5
v25
n2
o2
n0.005
o39
o0
n1
o5
v26
n2
o2
n0.005
o39
o0
n1
o5
v26
n2
o2
n0.005
o39
o0
n1
o5
v27
n2
o2
n0.005
o39
o0
n1
o5
v27
n2
o2
n0.005
o39
o0
n1
o5
v28
n2
o2
n0.005
o39
o0
n1
o5
v28
n2
o2
n0.005
o39
o0
n1
o5
v29
n2
o2
n0.005
o39
o0
n1
o5
v29
n2
o2
n0.005
o39
o0
n1
o5
v30
n2
o2
n0.005
o39
o0
n1
o5
v30
n2
o2
n0.005
o39
o0
n1
o5
v31
n2
o2
n0.005
o39
o0
n1
o5
v31
n2
o2
n0.005
o39
o0
n1
o5
v32
n2
o2
n0.005
o39
o0
n1
o5
v32
n2
o2
n0.005
o39
o0
n1
o5
v33
n2
o2
n0.005
o39
o0
n1
o5
v33
n2
o2
n0.005
o39
o0
n1
o5
v34
n2
o2
n0.005
o39
o0
n1
o5
v34
n2
o2
n0.005
o39
o0
n1
o5
v35
n2
o2
n0.005
o39
o0
n1
o5
v35
n2
o2
n0.005
o39
o0
n1
o5
v36
n2
o2
n0.005
o39
o0
n1
o5
v36
n2
o2
n0.005
o39
o0
n1
o5
v37
n2
o2
n0.005
o39
o0
n1
o5
v37
n2
o2
n0.005
o39
o0
n1
o5
v38
n2
o2
n0.005
o39
o0
n1
o5
v38
n2
o2
n0.005
o39
o0
n1
o5
v39
n2
o2
n0.005
o39
o0
n1
o5
v39
n2
o2
n0.005
o39
o0
n1
o5
v40
n2
o2
n0.005
o39
o0
n1
o5
v40
n2
o2
n0.005
o39
o0
n1
o5
v41
n2
o2
n0.005
o39
o0
n1
o5
v41
n2
o2
n0.005
o39
o0
n1
o5
v42
n2
o2
n0.005
o39
o0
n1
o5
v42
n2
o2
n0.005
o39
o0
n1
o5
v43
n2
o2
n0.005
o39
o0
n1
o5
v43
n2
o2
n0.005
o39
o0
n1
o5
v44
n2
o2
n0.005
o39
o0
n1
o5
v44
n2
o2
n0.005
o39
o0
n1
o5
v45
n2
o2
n0.005
o39
o0
n1
o5
v45
n2
o2
n0.005
o39
o0
n1
o5
v46
n2
o2
n0.005
o39
o0
n1
o5
v46
n2
o2
n0.005
o39
o0
n1
o5
v47
n2
o2
n0.005
o39
o0
n1
o5
v47
n2
o2
n0.005
o39
o0
n1
o5
v48
n2
o2
n0.005
o39
o0
n1
o5
v48
n2
o2
n0.005
o39
o0
n1
o5
v49
n2
o2
n0.005
o39
o0
n1
o5
v49
n2
o2
n0.005
o39
o0
n1
o5
v50
n2
o2
n0.005
o39
o0
n1
o5
v50
n2
o2
n0.005
o39
o0
n1
o5
v51
n2
o2
n0.005
o39
o0
n1
o5
v51
n2
o2
n0.005
o39
o0
n1
o5
v52
n2
o2
n0.005
o39
o0
n1
o5
v52
n2
o2
n0.005
o39
o0
n1
o5
v53
n2
o2
n0.005
o39
o0
n1
o5
v53
n2
o2
n0.005
o39
o0
n1
o5
v54
n2
o2
n0.005
o39
o0
n1
o5
v54
n2
o2
n0.005
o39
o0
n1
o5
v55
n2
o2
n0.005
o39
o0
n1
o5
v55
n2
o2
n0.005
o39
o0
n1
o5
v56
n2
o2
n0.005
o39
o0
n1
o5
v56
n2
o2
n0.005
o39
o0
n1
o5
v57
n2
o2
n0.005
o39
o0
n1
o5
v57
n2
o2
n0.005
o39
o0
n1
o5
v58
n2
o2
n0.005
o39
o0
n1
o5
v58
n2
o2
n0.005
o39
o0
n1
o5
v59
n2
o2
n0.005
o39
o0
n1
o5
v59
n2
o2
n0.005
o39
o0
n1
o5
v60
n2
o2
n0.005
o39
o0
n1
o5
v60
n2
o2
n0.005
o39
o0
n1
o5
v61
n2
o2
n0.005
o39
o0
n1
o5
v61
n2
o2
n0.005
o39
o0
n1
o5
v62
n2
o2
n0.005
o39
o0
n1
o5
v62
n2
o2
n0.005
o39
o0
n1
o5
v63
n2
o2
n0.005
o39
o0
n1
o5
v63
n2
o2
n0.005
o39
o0
n1
o5
v64
n2
o2
n0.005
o39
o0
n1
o5
v64
n2
o2
n0.005
o39
o0
n1
o5
v65
n2
o2
n0.005
o39
o0
n1
o5
v65
n2
o2
n0.005
o39
o0
n1
o5
v66
n2
o2
n0.005
o39
o0
n1
o5
v66
n2
o2
n0.005
o39
o0
n1
o5
v67
n2
o2
n0.005
o39
o0
n1
o5
v67
n2
o2
n0.005
o39
o0
n1
o5
v68
n2
o2
n0.005
o39
o0
n1
o5
v68
n2
o2
n0.005
o39
o0
n1
o5
v69
n2
o2
n0.005
o39
o0
n1
o5
v69
n2
o2
n0.005
o39
o0
n1
o5
v70
n2
o2
n0.005
o39
o0
n1
o5
v70
n2
o2
n0.005
o39
o0
n1
o5
v71
n2
o2
n0.005
o39
o0
n1
o5
v71
n2
o2
n0.005
o39
o0
n1
o5
v72
n2
o2
n0.005
o39
o0
n1
o5
v72
n2
o2
n0.005
o39
o0
n1
o5
v73
n2
o2
n0.005
o39
o0
n1
o5
v73
n2
o2
n0.005
o39
o0
n1
o5
v74
n2
o2
n0.005
o39
o0
n1
o5
v74
n2
o2
n0.005
o39
o0
n1
o5
v75
n2
o2
n0.005
o39
o0
n1
o5
v75
n2
o2
n0.005
o39
o0
n1
o5
v76
n2
o2
n0.005
o39
o0
n1
o5
v76
n2
o2
n0.005
o39
o0
n1
o5
v77
n2
o2
n0.005
o39
o0
n1
o5
v77
n2
o2
n0.005
o39
o0
n1
o5
v78
n2
o2
n0.005
o39
o0
n1
o5
v78
n2
o2
n0.005
o39
o0
n1
o5
v79
n2
o2
n0.005
o39
o0
n1
o5
v79
n2
o2
n0.005
o39
o0
n1
o5
v80
n2
o2
n0.005
o39
o0
n1
o5
v80
n2
o2
n0.005
o39
o0
n1
o5
v81
n2
o2
n0.005
o39
o0
n1
o5
v81
n2
o2
n0.005
o39
o0
n1
o5
v82
n2
o2
n0.005
o39
o0
n1
o5
v82
n2
o2
n0.005
o39
o0
n1
o5
v83
n2
o2
n0.005
o39
o0
n1
o5
v83
n2
o2
n0.005
o39
o0
n1
o5
v84
n2
o2
n0.005
o39
o0
n1
o5
v84
n2
o2
n0.005
o39
o0
n1
o5
v85
n2
o2
n0.005
o39
o0
n1
o5
v85
n2
o2
n0.005
o39
o0
n1
o5
v86
n2
o2
n0.005
o39
o0
n1
o5
v86
n2
o2
n0.005
o39
o0
n1
o5
v87
n2
o2
n0.005
o39
o0
n1
o5
v87
n2
o2
n0.005
o39
o0
n1
o5
v88
n2
o2
n0.005
o39
o0
n1
o5
v88
n2
o2
n0.005
o39
o0
n1
o5
v89
n2
o2
n0.005
o39
o0
n1
o5
v89
n2
o2
n0.005
o39
o0
n1
o5
v90
n2
o2
n0.005
o39
o0
n1
o5
v90
n2
o2
n0.005
o39
o0
n1
o5
v91
n2
o2
n0.005
o39
o0
n1
o5
v91
n2
o2
n0.005
o39
o0
n1
o5
v92
n2
o2
n0.005
o39
o0
n1
o5
v92
n2
o2
n0.005
o39
o0
n1
o5
v93
n2
o2
n0.005
o39
o0
n1
o5
v93
n2
o2
n0.005
o39
o0
n1
o5
v94
n2
o2
n0.005
o39
o0
n1
o5
v94
n2
o2
n0.005
o39
o0
n1
o5
v95
n2
o2
n0.005
o39
o0
n1
o5
v95
n2
o2
n0.005
o39
o0
n1
o5
v96
n2
o2
n0.005
o39
o0
n1
o5
v96
n2
o2
n0.005
o39
o0
n1
o5
v97
n2
o2
n0.005
o39
o0
n1
o5
v97
n2
o2
n0.005
o39
o0
n1
o5
v98
n2
o2
n0.005
o39
o0
n1
o5
v98
n2
o2
n0.005
o39
o0
n1
o5
v99
n2
o2
n0.005
o39
o0
n1
o5
v99
n2
o2
n0.005
o39
o0
n1
o5
v100
n2
C1
n0
C2
n0
C3
n0
C4
n0
C5
n0
C6
n0
C7
n0
C8
n0
C9
n0
C10
n0
C11
n0
C12
n0
C13
n0
C14
n0
C15
n0
C16
n0
C17
n0
C18
n0
C19
n0
C20
n0
C21
n0
C22
n0
C23
n0
C24
n0
C25
n0
C26
n0
C27
n0
C28
n0
C29
n0
C30
n0
C31
n0
C32
n0
C33
n0
C34
n0
C35
n0
C36
n0
C37
n0
C38
n0
C39
n0
C40
n0
C41
n0
C42
n0
C43
n0
C44
n0
C45
n0
C46
n0
C47
n0
C48
n0
C49
n0
C50
n0
C51
n0
C52
n0
C53
n0
C54
n0
C55
n0
C56
n0
C57
n0
C58
n0
C59
n0
C60
n0
C61
n0
C62
n0
C63
n0
C64
n0
C65
n0
C66
n0
C67
n0
C68
n0
C69
n0
C70
n0
C71
n0
C72
n0
C73
n0
C74
n0
C75
n0
C76
n0
C77
n0
C78
n0
C79
n0
C80
n0
C81
n0
C82
n0
C83
n0
C84
n0
C85
n0
C86
n0
C87
n0
C88
n0
C89
n0
C90
n0
C91
n0
C92
n0
C93
n0
C94
n0
C95
n0
C96
n0
C97
n0
C98
n0
C99
n0
C100
n0
O0 0
o54
200
o2
n0.005
o39
o0
n1
o5
v0
n2
o2
n0.005
o2
v101
o39
o0
n1
o5
v1
n2
o2
n0.005
o2
v101
o39
o0
n1
o5
v1
n2
o2
n0.005
o2
v102
o39
o0
n1
o5
v2
n2
o2
n0.005
o2
v102
o39
o0
n1
o5
v2
n2
o2
n0.005
o2
v103
o39
o0
n1
o5
v3
n2
o2
n0.005
o2
v103
o39
o0
n1
o5
v3
n2
o2
n0.005
o2
v104
o39
o0
n1
o5
v4
n2
o2
n0.005
o2
v104
o39
o0
n1
o5
v4
n2
o2
n0.005
o2
v105
o39
o0
n1
o5
v5
n2
o2
n0.005
o2
v105
o39
o0
n1
o5
v5
n2
o2
n0.005
o2
v106
o39
o0
n1
o5
v6
n2
o2
n0.005
o2
v106
o39
o0
n1
o5
v6
n2
o2
n0.005
o2
v107
o39
o0
n1
o5
v7
n2
o2
n0.005
o2
v107
o39
o0
n1
o5
v7
n2
o2
n0.005
o2
v108
o39
o0
n1
o5
v8
n2
o2
n0.005
o2
v108
o39
o0
n1
o5
v8
n2
o2
n0.005
o2
v109
o39
o0
n1
o5
v9
n2
o2
n0.005
o2
v109
o39
o0
n1
o5
v9
n2
o2
n0.005
o2
v110
o39
o0
n1
o5
v10
n2
o2
n0.005
o2
v110
o39
o0
n1
o5
v10
n2
o2
n0.005
o2
v111
o39
o0
n1
o5
v11
n2
o2
n0.005
o2
v111
o39
o0
n1
o5
v11
n2
o2
n0.005
o2
v112
o39
o0
n1
o5
v12
n2
o2
n0.005
o2
v112
o39
o0
n1
o5
v12
n2
o2
n0.005
o2
v113
o39
o0
n1
o5
v13
n2
o2
n0.005
o2
v113
o39
o0
n1
o5
v13
n2
o2
n0.005
o2
v114
o39
o0
n1
o5
v14
n2
o2
n0.005
o2
v114
o39
o0
n1
o5
v14
n2
o2
n0.005
o2
v115
o39
o0
n1
o5
v15
n2
o2
n0.005
o2
v115
o39
o0
n1
o5
v15
n2
o2
n0.005
o2
v116
o39
o0
n1
o5
v16
n2
o2
n0.005
o2
v116
o39
o0
n1
o5
v16
n2
o2
n0.005
o2
v117
o39
o0
n1
o5
v17
n2
o2
n0.005
o2
v117
o39
o0
n1
o5
v17
n2
o2
n0.005
o2
v118
o39
o0
n1
o5
v18
n2
o2
n0.005
o2
v118
o39
o0
n1
o5
v18
n2
o2
n0.005
o2
v119
o39
o0
n1
o5
v19
n2
o2
n0.005
o2
v119
o39
o0
n1
o5
v19
n2
o2
n0.005
o2
v120
o39
o0
n1
o5
v20
n2
o2
n0.005
o2
v120
o39
o0
n1
o5
v20
n2
o2
n0.005
o2
v121
o39
o0
n1
o5
v21
n2
o2
n0.005
o2
v121
o39
o0
n1
o5
v21
n2
o2
n0.005
o2
v122
o39
o0
n1
o5
v22
n2
o2
n0.005
o2
v122
o39
o0
n1
o5
v22
n2
o2
n0.005
o2
v123
o39
o0
n1
o5
v23
n2
o2
n0.005
o2
v123
o39
o0
n1
o5
v23
n2
o2
n0.005
o2
v124
o39
o0
n1
o5
v24
n2
o2
n0.005
o2
v124
o39
o0
n1
o5
v24
n2
o2
n0.005
o2
v125
o39
o0
n1
o5
v25
n2
o2
n0.005
o2
v125
o39
o0
n1
o5
v25
n2
o2
n0.005
o2
v126
o39
o0
n1
o5
v26
n2
o2
n0.005
o2
v126
o39
o0
n1
o5
v26
n2
o2
n0.005
o2
v127
o39
o0
n1
o5
v27
n2
o2
n0.005
o2
v127
o39
o0
n1
o5
v27
n2
o2
n0.005
o2
v128
o39
o0
n1
o5
v28
n2
o2
n0.005
o2
v128
o39
o0
n1
o5
v28
n2
o2
n0.005
o2
v129
o39
o0
n1
o5
v29
n2
o2
n0.005
o2
v129
o39
o0
n1
o5
v29
n2
o2
n0.005
o2
v130
o39
o0
n1
o5
v30
n2
o2
n0.005
o2
v130
o39
o0
n1
o5
v30
n2
o2
n0.005
o2
v131
o39
o0
n1
o5
v31
n2
o2
n0.005
o2
v131
o39
o0
n1
o5
v31
n2
o2
n0.005
o2
v132
o39
o0
n1
o5
v32
n2
o2
n0.005
o2
v132
o39
o0
n1
o5
v32
n2
o2
n0.005
o2
v133
o39
o0
n1
o5
v33
n2
o2
n0.005
o2
v133
o39
o0
n1
o5
v33
n2
o2
n0.005
o2
v134
o39
o0
n1
o5
v34
n2
o2
n0.005
o2
v134
o39
o0
n1
o5
v34
n2
o2
n0.005
o2
v135
o39
o0
n1
o5
v35
n2
o2
n0.005
o2
v135
o39
o0
n1
o5
v35
n2
o2
n0.005
o2
v136
o39
o0
n1
o5
v36
n2
o2
n0.005
o2
v136
o39
o0
n1
o5
v36
n2
o2
n0.005
o2
v137
o39
o0
n1
o5
v37
n2
o2
n0.005
o2
v137
o39
o0
n1
o5
v37
n2
o2
n0.005
o2
v138
o39
o0
n1
o5
v38
n2
o2
n0.005
o2
v138
o39
o0
n1
o5
v38
n2
o2
n0.005
o2
v139
o39
o0
n1
o5
v39
n2
o2
n0.005
o2
v139
o39
o0
n1
o5
v39
n2
o2
n0.005
o2
v140
o39
o0
n1
o5
v40
n2
o2
n0.005
o2
v140
o39
o0
n1
o5
v40
n2
o2
n0.005
o2
v141
o39
o0
n1
o5
v41
n2
o2
n0.005
o2
v141
o39
o0
n1
o5
v41
n2
o2
n0.005
o2
v142
o39
o0
n1
o5
v42
n2
o2
n0.005
o2
v142
o39
o0
n1
o5
v42
n2
o2
n0.005
o2
v143
o39
o0
n1
o5
v43
n2
o2
n0.005
o2
v143
o39
o0
n1
o5
v43
n2
o2
n0.005
o2
v144
o39
o0
n1
o5
v44
n2
o2
n0.005
o2
v144
o39
o0
n1
o5
v44
n2
o2
n0.005
o2
v145
o39
o0
n1
o5
v45
n2
o2
n0.005
o2
v145
o39
o0
n1
o5
v45
n2
o2
n0.005
o2
v146
o39
o0
n1
o5
v46
n2
o2
n0.005
o2
v146
o39
o0
n1
o5
v46
n2
o2
n0.005
o2
v147
o39
o0
n1
o5
v47
n2
o2
n0.005
o2
v147
o39
o0
n1
o5
v47
n2
o2
n0.005
o2
v148
o39
o0
n1
o5
v48
n2
o2
n0.005
o2
v148
o39
o0
n1
o5
v48
n2
o2
n0.005
o2
v149
o39
o0
n1
o5
v49
n2
o2
n0.005
o2
v149
o39
o0
n1
o5
v49
n2
o2
n0.005
o2
v150
o39
o0
n1
o5
v50
n2
o2
n0.005
o2
v150
o39
o0
n1
o5
v50
n2
o2
n0.005
o2
v151
o39
o0
n1
o5
v51
n2
o2
n0.005
o2
v151
o39
o0
n1
o5
v51
n2
o2
n0.005
o2
v152
o39
o0
n1
o5
v52
n2
o2
n0.005
o2
v152
o39
o0
n1
o5
v52
n2
o2
n0.005
o2
v153
o39
o0
n1
o5
v53
n2
o2
n0.005
o2
v153
o39
o0
n1
o5
v53
n2
o2
n0.005
o2
v154
o39
o0
n1
o5
v54
n2
o2
n0.005
o2
v154
o39
o0
n1
o5
v54
n2
o2
n0.005
o2
v155
o39
o0
n1
o5
v55
n2
o2
n0.005
o2
v155
o39
o0
n1
o5
v55
n2
o2
n0.005
o2
v156
o39
o0
n1
o5
v56
n2
o2
n0.005
o2
v156
o39
o0
n1
o5
v56
n2
o2
n0.005
o2
v157
o39
o0
n1
o5
v57
n2
o2
n0.005
o2
v157
o39
o0
n1
o5
v57
n2
o2
n0.005
o2
v158
o39
o0
n1
o5
v58
n2
o2
n0.005
o2
v158
o39
o0
n1
o5
v58
n2
o2
n0.005
o2
v159
o39
o0
n1
o5
v59
n2
o2
n0.005
o2
v159
o39
o0
n1
o5
v59
n2
o2
n0.005
o2
v160
o39
o0
n1
o5
v60
n2
o2
n0.005
o2
v160
o39
o0
n1
o5
v60
n2
o2
n0.005
o2
v161
o39
o0
n1
o5
v61
n2
o2
n0.005
o2
v161
o39
o0
n1
o5
v61
n2
o2
n0.005
o2
v162
o39
o0
n1
o5
v62
n2
o2
n0.005
o2
v162
o39
o0
n1
o5
v62
n2
o2
n0.005
o2
v163
o39
o0
n1
o5
v63
n2
o2
n0.005
o2
v163
o39
o0
n1
o5
v63
n2
o2
n0.005
o2
v164
o39
o0
n1
o5
v64
n2
o2
n0.005
o2
v164
o39
o0
n1
o5
v64
n2
o2
n0.005
o2
v165
o39
o0
n1
o5
v65
n2
o2
n0.005
o2
v165
o39
o0
n1
o5
v65
n2
o2
n0.005
o2
v166
o39
o0
n1
o5
v66
n2
o2
n0.005
o2
v166
o39
o0
n1
o5
v66
n2
o2
n0.005
o2
v167
o39
o0
n1
o5
v67
n2
o2
n0.005
o2
v167
o39
o0
n1
o5
v67
n2
o2
n0.005
o2
v168
o39
o0
n1
o5
v68
n2
o2
n0.005
o2
v168
o39
o0
n1
o5
v68
n2
o2
n0.005
o2
v169
o39
o0
n1
o5
v69
n2
o2
n0.005
o2
v169
o39
o0
n1
o5
v69
n2
o2
n0.005
o2
v170
o39
o0
n1
o5
v70
n2
o2
n0.005
o2
v170
o39
o0
n1
o5
v70
n2
o2
n0.005
o2
v171
o39
o0
n1
o5
v71
n2
o2
n0.005
o2
v171
o39
o0
n1
o5
v71
n2
o2
n0.005
o2
v172
o39
o0
n1
o5
v72
n2
o2
n0.005
o2
v172
o39
o0
n1
o5
v72
n2
o2
n0.005
o2
v173
o39
o0
n1
o5
v73
n2
o2
n0.005
o2
v173
o39
o0
n1
o5
v73
n2
o2
n0.005
o2
v174
o39
o0
n1
o5
v74
n2
o2
n0.005
o2
v174
o39
o0
n1
o5
v74
n2
o2
n0.005
o2
v175
o39
o0
n1
o5
v75
n2
o2
n0.005
o2
v175
o39
o0
n1
o5
v75
n2
o2
n0.005
o2
v176
o39
o0
n1
o5
v76
n2
o2
n0.005
o2
v176
o39
o0
n1
o5
v76
n2
o2
n0.005
o2
v177
o39
o0
n1
o5
v77
n2
o2
n0.005
o2
v177
o39
o0
n1
o5
v77
n2
o2
n0.005
o2
v178
o39
o0
n1
o5
v78
n2
o2
n0.005
o2
v178
o39
o0
n1
o5
v78
n2
o2
n0.005
o2
v179
o39
o0
n1
o5
v79
n2
o2
n0.005
o2
v179
o39
o0
n1
o5
v79
n2
o2
n0.005
o2
v180
o39
o0
n1
o5
v80
n2
o2
n0.005
o2
v180
o39
o0
n1
o5
v80
n2
o2
n0.005
o2
v181
o39
o0
n1
o5
v81
n2
o2
n0.005
o2
v181
o39
o0
n1
o5
v81
n2
o2
n0.005
o2
v182
o39
o0
n1
o5
v82
n2
o2
n0.005
o2
v182
o39
o0
n1
o5
v82
n2
o2
n0.005
o2
v183
o39
o0
n1
o5
v83
n2
o2
n0.005
o2
v183
o39
o0
n1
o5
v83
n2
o2
n0.005
o2
v184
o39
o0
n1
o5
v84
n2
o2
n0.005
o2
v184
o39
o0
n1
o5
v84
n2
o2
n0.005
o2
v185
o39
o0
n1
o5
v85
n2
o2
n0.005
o2
v185
o39
o0
n1
o5
v85
n2
o2
n0.005
o2
v186
o39
o0
n1
o5
v86
n2
o2
n0.005
o2
v186
o39
o0
n1
o5
v86
n2
o2
n0.005
o2
v187
o39
o0
n1
o5
v87
n2
o2
n0.005
o2
v187
o39
o0
n1
o5
v87
n2
o2
n0.005
o2
v188
o39
o0
n1
o5
v88
n2
o2
n0.005
o2
v188
o39
o0
n1
o5
v88
n2
o2
n0.005
o2
v189
o39
o0
n1
o5
v89
n2
o2
n0.005
o2
v189
o39
o0
n1
o5
v89
n2
o2
n0.005
o2
v190
o39
o0
n1
o5
v90
n2
o2
n0.005
o2
v190
o39
o0
n1
o5
v90
n2
o2
n0.005
o2
v191
o39
o0
n1
o5
v91
n2
o2
n0.005
o2
v191
o39
o0
n1
o5
v91
n2
o2
n0.005
o2
v192
o39
o0
n1
o5
v92
n2
o2
n0.005
o2
v192
o39
o0
n1
o5
v92
n2
o2
n0.005
o2
v193
o39
o0
n1
o5
v93
n2
o2
n0.005
o2
v193
o39
o0
n1
o5
v93
n2
o2
n0.005
o2
v194
o39
o0
n1
o5
v94
n2
o2
n0.005
o2
v194
o39
o0
n1
o5
v94
n2
o2
n0.005
o2
v195
o39
o0
n1
o5
v95
n2
o2
n0.005
o2
v195
o39
o0
n1
o5
v95
n2
o2
n0.005
o2
v196
o39
o0
n1
o5
v96
n2
o2
n0.005
o2
v196
o39
o0
n1
o5
v96
n2
o2
n0.005
o2
v197
o39
o0
n1
o5
v97
n2
o2
n0.005
o2
v197
o39
o0
n1
o5
v97
n2
o2
n0.005
o2
v198
o39
o0
n1
o5
v98
n2
o2
n0.005
o2
v198
o39
o0
n1
o5
v98
n2
o2
n0.005
o2
v199
o39
o0
n1
o5
v99
n2
o2
n0.005
o2
v199
o39
o0
n1
o5
v99
n2
o2
n0.015
o39
o0
n1
o5
v100
n2
k199
2
5
8
11
14
17
20
23
26
29
32
35
38
41
44
47
50
53
56
59
62
65
68
71
74
77
80
83
86
89
92
95
98
101
104
107
110
113
116
119
122
125
128
131
134
137
140
143
146
149
152
155
158
161
164
167
170
173
176
179
182
185
188
191
194
197
200
203
206
209
212
215
218
221
224
227
230
233
236
239
242
245
248
251
254
257
260
263
266
269
272
275
278
281
284
287
290
293
296
299
301
303
305
307
309
311
313
315
317
319
321
323
325
327
329
331
333
335
337
339
341
343
345
347
349
351
353
355
357
359
361
363
365
367
369
371
373
375
377
379
381
383
385
387
389
391
393
395
397
399
401
403
405
407
409
411
413
415
417
419
421
423
425
427
429
431
433
435
437
439
441
443
445
447
449
451
453
455
457
459
461
463
465
467
469
471
473
475
477
479
481
483
485
487
489
491
493
495
497
J0 101
0 0
1 0
2 0
3 0
4 0
5 0
6 0
7 0
8 0
9 0
10 0
11 0
12 0
13 0
14 0
15 0
16 0
17 0
18 0
19 0
20 0
21 0
22 0
23 0
24 0
25 0
26 0
27 0
28 0
29 0
30 0
31 0
32 0
33 0
34 0
35 0
36 0
37 0
38 0
39 0
40 0
41 0
42 0
43 0
44 0
45 0
46 0
47 0
48 0
49 0
50 0
51 0
52 0
53 0
54 0
55 0
56 0
57 0
58 0
59 0
60 0
61 0
62 0
63 0
64 0
65 0
66 0
67 0
68 0
69 0
70 0
71 0
72 0
73 0
74 0
75 0
76 0
77 0
78 0
79 0
80 0
81 0
82 0
83 0
84 0
85 0
86 0
87 0
88 0
89 0
90 0
91 0
92 0
93 0
94 0
95 0
96 0
97 0
98 0
99 0
100 0
J1 3
0 -0.005
1 -0.005
101 1
J2 4
1 -0.005
2 -0.005
101 -1
102 1
J3 4
2 -0.005
3 -0.005
102 -1
103 1
J4 4
3 -0.005
4 -0.005
103 -1
104 1
J5 4
4 -0.005
5 -0.005
104 -1
105 1
J6 4
5 -0.005
6 -0.005
105 -1
106 1
J7 4
6 -0.005
7 -0.005
106 -1
107 1
J8 4
7 -0.005
8 -0.005
107 -1
108 1
J9 4
8 -0.005
9 -0.005
108 -1
109 1
J10 4
9 -0.005
10 -0.005
109 -1
110 1
J11 4
10 -0.005
11 -0.005
110 -1
111 1
J12 4
11 -0.005
12 -0.005
111 -1
112 1
J13 4
12 -0.005
13 -0.005
112 -1
113 1
J14 4
13 -0.005
14 -0.005
113 -1
114 1
J15 4
14 -0.005
15 -0.005
114 -1
115 1
J16 4
15 -0.005
16 -0.005
115 -1
116 1
J17 4
16 -0.005
17 -0.005
116 -1
117 1
J18 4
17 -0.005
18 -0.005
117 -1
118 1
J19 4
18 -0.005
19 -0.005
118 -1
119 1
J20 4
19 -0.005
20 -0.005
119 -1
120 1
J21 4
20 -0.005
21 -0.005
120 -1
121 1
J22 4
21 -0.005
22 -0.005
121 -1
122 1
J23 4
22 -0.005
23 -0.005
122 -1
123 1
J24 4
23 -0.005
24 -0.005
123 -1
124 1
J25 4
24 -0.005
25 -0.005
124 -1
125 1
J26 4
25 -0.005
26 -0.005
125 -1
126 1
J27 4
26 -0.005
27 -0.005
126 -1
127 1
J28 4
27 -0.005
28 -0.005
127 -1
128 1
J29 4
28 -0.005
29 -0.005
128 -1
129 1
J30 4
29 -0.005
30 -0.005
129 -1
130 1
J31 4
30 -0.005
31 -0.005
130 -1
131 1
J32 4
31 -0.005
32 -0.005
131 -1
132 1
J33 4
32 -0.005
33 -0.005
132 -1
133 1
J34 4
33 -0.005
34 -0.005
133 -1
134 1
J35 4
34 -0.005
35 -0.005
134 -1
135 1
J36 4
35 -0.005
36 -0.005
135 -1
136 1
J37 4
36 -0.005
37 -0.005
136 -1
137 1
J38 4
37 -0.005
38 -0.005
137 -1
138 1
J39 4
38 -0.005
39 -0.005
138 -1
139 1
J40 4
39 -0.005
40 -0.005
139 -1
140 1
J41 4
40 -0.005
41 -0.005
140 -1
141 1
J42 4
41 -0.005
42 -0.005
141 -1
142 1
J43 4
42 -0.005
43 -0.005
142 -1
143 1
J44 4
43 -0.005
44 -0.005
143 -1
144 1
J45 4
44 -0.005
45 -0.005
144 -1
145 1
J46 4
45 -0.005
46 -0.005
145 -1
146 1
J47 4
46 -0.005
47 -0.005
146 -1
147 1
J48 4
47 -0.005
48 -0.005
147 -1
148 1
J49 4
48 -0.005
49 -0.005
148 -1
149 1
J50 4
49 -0.005
50 -0.005
149 -1
150 1
J51 4
50 -0.005
51 -0.005
150 -1
151 1
J52 4
51 -0.005
52 -0.005
151 -1
152 1
J53 4
52 -0.005
53 -0.005
152 -1
153 1
J54 4
53 -0.005
54 -0.005
153 -1
154 1
J55 4
54 -0.005
55 -0.005
154 -1
155 1
J56 4
55 -0.005
56 -0.005
155 -1
156 1
J57 4
56 -0.005
57 -0.005
156 -1
157 1
J58 4
57 -0.005
58 -0.005
157 -1
158 1
J59 4
58 -0.005
59 -0.005
158 -1
159 1
J60 4
59 -0.005
60 -0.005
159 -1
160 1
J61 4
60 -0.005
61 -0.005
160 -1
161 1
J62 4
61 -0.005
62 -0.005
161 -1
162 1
J63 4
62 -0.005
63 -0.005
162 -1
163 1
J64 4
63 -0.005
64 -0.005
163 -1
164 1
J65 4
64 -0.005
65 -0.005
164 -1
165 1
J66 4
65 -0.005
66 -0.005
165 -1
166 1
J67 4
66 -0.005
67 -0.005
166 -1
167 1
J68 4
67 -0.005
68 -0.005
167 -1
168 1
J69 4
68 -0.005
69 -0.005
168 -1
169 1
J70 4
69 -0.005
70 -0.005
169 -1
170 1
J71 4
70 -0.005
71 -0.005
170 -1
171 1
J72 4
71 -0.005
72 -0.005
171 -1
172 1
J73 4
72 -0.005
73 -0.005
172 -1
173 1
J74 4
73 -0.005
74 -0.005
173 -1
174 1
J75 4
74 -0.005
75 -0.005
174 -1
175 1
J76 4
75 -0.005
76 -0.005
175 -1
176 1
J77 4
76 -0.005
77 -0.005
176 -1
177 1
J78 4
77 -0.005
78 -0.005
177 -1
178 1
J79 4
78 -0.005
79 -0.005
178 -1
179 1
J80 4
79 -0.005
80 -0.005
179 -1
180 1
J81 4
80 -0.005
81 -0.005
180 -1
181 1
J82 4
81 -0.005
82 -0.005
181 -1
182 1
J83 4
82 -0.005
83 -0.005
182 -1
183 1
J84 4
83 -0.005
84 -0.005
183 -1
184 1
J85 4
84 -0.005
85 -0.005
184 -1
185 1
J86 4
85 -0.005
86 -0.005
185 -1
186 1
J87 4
86 -0.005
87 -0.005
186 -1
187 1
J88 4
87 -0.005
88 -0.005
187 -1
188 1
J89 4
88 -0.005
89 -0.005
188 -1
189 1
J90 4
89 -0.005
90 -0.005
189 -1
190 1
J91 4
90 -0.005
91 -0.005
190 -1
191 1
J92 4
91 -0.005
92 -0.005
191 -1
192 1
J93 4
92 -0.005
93 -0.005
192 -1
193 1
J94 4
93 -0.005
94 -0.005
193 -1
194 1
J95 4
94 -0.005
95 -0.005
194 -1
195 1
J96 4
95 -0.005
96 -0.005
195 -1
196 1
J97 4
96 -0.005
97 -0.005
196 -1
197 1
J98 4
97 -0.005
98 -0.005
197 -1
198 1
J99 4
98 -0.005
99 -0.005
198 -1
199 1
J100 3
99 -0.005
100 -0.005
199 -1
G0 200
0 0
1 0
2 0
3 0
4 0
5 0
6 0
7 0
8 0
9 0
10 0
11 0
12 0
13 0
14 0
15 0
16 0
17 0
18 0
19 0
20 0
21 0
22 0
23 0
24 0
25 0
26 0
27 0
28 0
29 0
30 0
31 0
32 0
33 0
34 0
35 0
36 0
37 0
38 0
39 0
40 0
41 0
42 0
43 0
44 0
45 0
46 0
47 0
48 0
49 0
50 0
51 0
52 0
53 0
54 0
55 0
56 0
57 0
58 0
59 0
60 0
61 0
62 0
63 0
64 0
65 0
66 0
67 0
68 0
69 0
70 0
71 0
72 0
73 0
74 0
75 0
76 0
77 0
78 0
79 0
80 0
81 0
82 0
83 0
84 0
85 0
86 0
87 0
88 0
89 0
90 0
91 0
92 0
93 0
94 0
95 0
96 0
97 0
98 0
99 0
100 0
101 0
102 0
103 0
104 0
105 0
106 0
107 0
108 0
109 0
110 0
111 0
112 0
113 0
114 0
115 0
116 0
117 0
118 0
119 0
120 0
121 0
122 0
123 0
124 0
125 0
126 0
127 0
128 0
129 0
130 0
131 0
132 0
133 0
134 0
135 0
136 0
137 0
138 0
139 0
140 0
141 0
142 0
143 0
144 0
145 0
146 0
147 0
148 0
149 0
150 0
151 0
152 0
153 0
154 0
155 0
156 0
157 0
158 0
159 0
160 0
161 0
162 0
163 0
164 0
165 0
166 0
167 0
168 0
169 0
170 0
171 0
172 0
173 0
174 0
175 0
176 0
177 0
178 0
179 0
180 0
181 0
182 0
183 0
184 0
185 0
186 0
187 0
188 0
189 0
190 0
191 0
192 0
193 0
194 0
195 0
196 0
197 0
198 0
199 0
